NAME : problems/30-tsp/instance-44.tsp
COMMENT : No Comment
TYPE : TSP
DIMENSION: 30
EDGE_WEIGHT_TYPE : EUC_2D
NODE_COORD_SECTION
1 1301 5236 
2 3748 8562 
3 16 5923 
4 231 7397 
5 7642 2891 
6 6168 2593 
7 3560 3685 
8 7491 9339 
9 7812 545 
10 7914 1858 
11 8961 6445 
12 6924 9008 
13 3378 2005 
14 875 2162 
15 5341 1126 
16 325 9284 
17 2092 148 
18 520 5084 
19 5186 8548 
20 120 9577 
21 9676 7938 
22 7419 4762 
23 799 5757 
24 5820 1726 
25 8659 3046 
26 7161 9996 
27 2248 6451 
28 6098 9459 
29 6017 5468 
30 347 5161 
EOF
